BaTiO3-P4mm
      1.0000000000000000
      3.9673580343390062       0.0000000000000000       0.0000000000000000
      0.0000000000000000       3.9673580343390062       0.0000000000000000
      0.0000000000000000       0.0000000000000000       4.0723729749103370
   Ba   Ti    O
    1    1    3
Direct
      0.0000000000000000       0.0000000000000000       0.0000000000000000
      0.5000000000000000       0.5000000000000000       0.5168417307111577
      0.0000000000000000       0.5000000000000000       0.4812017595690358
      0.5000000000000000       0.0000000000000000       0.4812017595690358
      0.5000000000000000       0.5000000000000000       0.9683325873260097
