84
Lattice="9.3553478886 0.0 0.0334573396 0.0 15.5460596085 0.0 0.5303612584 0.0 6.8306708964" Properties=species:S:1:pos:R:3 pbc="T T T"
Cd       4.65812215       7.80284214       0.04564149
Cd       4.92330278       7.74321747       3.46097693
Cd       9.33579609       0.02981234       0.06237015
Cd       9.60097672      15.51624727       3.47770560
Cl       8.02153239      14.44988199       5.35871197
Cl       7.75635176       1.09617761       1.94337652
Cl       3.34385844       6.67685219       5.34198330
Cl       3.07867782       8.86920742       1.92664785
Cl       5.00686737       9.82178736       5.13406729
Cl       4.74168674       5.72427225       1.71873184
Cl       9.68454131       2.04875755       5.15079596
Cl       9.41936068      13.49730206       1.73546051
Cl       2.18364384      14.55574704       4.99947721
Cl       1.91846321       0.99031257       1.58414176
Cl       6.86131778       6.78271723       5.01620588
Cl       6.59613716       8.76334237       1.60087043
Cl       5.55120686      13.32027664       3.71721536
Cl       5.28602623       2.22578297       0.30187991
Cl       0.87353292       5.54724683       3.70048669
Cl       0.60835229       9.99881278       0.28515124
N        4.56099631      12.91352970       1.21577085
N        4.82617694       2.63252991       4.63110630
N        9.23867025       5.14049990       1.23249952
N        9.50385088      10.40555971       4.64783497
C        5.80860636      12.18359693       0.81215381
C        6.07378699       3.36246267       4.22748926
C        1.13093242       4.41056713       0.79542514
C        1.39611304      11.13549248       4.21076059
C        4.26740977      12.69951626       2.68275744
C        4.53259040       2.84654335       6.09809289
C        8.94508372       4.92648645       2.69948611
C        9.21026435      10.61957316       6.11482156
C        4.70476086      14.37399498       0.89535333
C        4.96994149       1.17206463       4.31068878
C        9.38243480       6.60096517       0.91208200
C        9.64761543       8.94509444       4.32741745
C        3.37945090      12.35000783       0.47151352
C        3.64463152       3.19605178       3.88684897
C        8.05712484       4.57697803       0.48824219
C        8.32230547      10.96908158       3.90357764
H        5.71495919      11.13003954       1.09829384
H        5.98013982       4.41602007       4.51362929
H        1.03728525       3.35700974       1.08156517
H        1.30246587      12.18904987       4.49690062
H        6.66891981      12.64949154       1.30531437
H        6.93410044       2.89656807       4.72064982
H        1.99124587       4.87646174       1.28858570
H        2.25642650      10.66959787       4.70392115
H        6.43833899      12.27801566       6.55769353
H        6.17315836       3.26804395       3.14235809
H        1.76066504       4.50498586       6.54096487
H        1.49548441      11.04107375       3.12562942
H        4.17196822      11.61873230       2.84860444
H        4.43714885       3.92732730       6.26393989
H        8.84964216       3.84570250       2.86533311
H        9.11482279      11.70035711       6.28066856
H        3.33990677      13.23349339       2.92370032
H        3.60508740       2.31256622       6.33903577
H        8.01758072       5.46046358       2.94042899
H        8.28276135      10.08559603       6.35576444
H        5.58483752      14.76978530       1.41235688
H        5.85001814       0.77627431       4.82769233
H        0.90716357       6.99675549       1.39562821
H        1.17234420       8.54930412       4.81096366
H        3.79184111      14.89892023       1.19966058
H        4.05702174       0.64713938       4.61499603
H        8.46951505       7.12589042       1.21638925
H        8.73469568       8.42016919       4.63172470
H        5.38335888      14.46042549       6.64597826
H        5.11817825       1.08563412       3.23064282
H        0.70568494       6.68739568       6.62924959
H        0.44050431       8.85866393       3.21391415
H        2.47353302      12.87776004       0.79193505
H        2.73871365       2.66829957       4.20727050
H        7.15120697       5.10473023       0.80866372
H        7.41638760      10.44132937       4.22399917
H        3.31062072      11.27860167       0.68743431
H        3.57580135       4.26745794       4.10276976
H        7.98829466       3.50557186       0.70416298
H        8.25347529      12.04048775       4.11949843
H        4.07963490      12.50698946       6.23370021
H        3.81445427       3.03907015       2.81836476
H        8.75730884       4.73395965       6.25042888
H        8.49212821      10.81209996       2.83509343
